data;

param num_top:=3;

#nodes and edges of the physical network
param n := 10;

set E := (1,2) (1,3) (1,7) (2,4) (2,7) (3,5) (4,8) (5,6) (5,7) (6,7) (6,9) (7,8) (7,9) (8,10) (9,10) ;

#nodes and edges of the virtual networks
set Nl[1] := 10 5 4 9 1 ;
set Nl[2] := 8 9 3 10 6 ;
set Nl[3] := 9 6 8 1 10 ;

set El[1] := (5,10) (4,5) (4,9) (1,9) (1,10) (5,9) (1,4) (1,5) (4,10) (9,10) ;
set El[2] := (8,9) (3,9) (3,10) (6,10) (6,8) (8,10) (9,10) (6,9) (3,8) (3,6) ;
set El[3] := (6,9) (6,8) (1,8) (1,10) (9,10) (8,9) (6,10) (1,6) (8,10) (1,9) ;
